HUN,8,6,480
4,26,2,25,5,25,0,29,3,26,1,25
0,30,1,25,2,26,3,27,5,25,4,28
2,26,4,22,3,22,0,27,1,21,5,26
0,25,5,29,4,22,1,28,3,26,2,26
3,28,2,25,5,26,1,28,4,23,0,27
3,30,2,21,1,30,0,24,5,22,4,25
4,23,2,25,1,24,5,24,0,26,3,24
5,27,0,28,4,23,2,27,3,24,1,26
